unknown
(model
; cardinality of BoundSet is 4
(declare-sort BoundSet 0)
; rep: @uc_BoundSet_0
; rep: @uc_BoundSet_1
; rep: @uc_BoundSet_2
; rep: @uc_BoundSet_3
; cardinality of UnboundSet is 1
(declare-sort UnboundSet 0)
(declare-fun groundTerm_5 () UnboundSet)
(define-fun PresentsImage ((BOUND_VARIABLE_464 BoundSet) (BOUND_VARIABLE_465 BoundSet)) Bool true)
(define-fun IsDark ((BOUND_VARIABLE_468 BoundSet)) Bool true)
(define-fun IsElected ((BOUND_VARIABLE_468 BoundSet)) Bool true)
(define-fun Represents ((BOUND_VARIABLE_464 BoundSet) (BOUND_VARIABLE_465 BoundSet)) Bool true)
(define-fun WillFlood ((BOUND_VARIABLE_468 BoundSet)) Bool false)
(define-fun IsConvicted ((BOUND_VARIABLE_464 BoundSet) (BOUND_VARIABLE_465 BoundSet)) Bool false)
(define-fun WillStay ((BOUND_VARIABLE_468 BoundSet)) Bool false)
)
sat
(model
; cardinality of BoundSet is 1
(declare-sort BoundSet 0)
; rep: @uc_BoundSet_0
; cardinality of UnboundSet is 1
(declare-sort UnboundSet 0)
(declare-fun groundTerm_7 () UnboundSet)
(define-fun PresentsImage ((BOUND_VARIABLE_509 BoundSet) (BOUND_VARIABLE_510 BoundSet)) Bool true)
(define-fun IsDark ((BOUND_VARIABLE_513 BoundSet)) Bool true)
(define-fun IsElected ((BOUND_VARIABLE_513 BoundSet)) Bool true)
(define-fun Represents ((BOUND_VARIABLE_509 BoundSet) (BOUND_VARIABLE_510 BoundSet)) Bool true)
(define-fun WillFlood ((BOUND_VARIABLE_513 BoundSet)) Bool false)
(define-fun IsConvicted ((BOUND_VARIABLE_509 BoundSet) (BOUND_VARIABLE_510 BoundSet)) Bool false)
(define-fun WillStay ((BOUND_VARIABLE_513 BoundSet)) Bool false)
)
